Version identifier: 22.1.0.0 | 2022-03-09 | 1a383f8ce
CPXPARAM_Read_DataCheck                          1
Tried aggregator 3 times.
MIP Presolve eliminated 2282 rows and 594 columns.
MIP Presolve modified 71 coefficients.
Aggregator did 1755 substitutions.
Reduced MIP has 618 rows, 1901 columns, and 4404 nonzeros.
Reduced MIP has 1891 binaries, 10 generals, 0 SOSs, and 0 indicators.
Presolve time = 0.01 sec. (12.60 ticks)
Probing fixed 13 vars, tightened 0 bounds.
Probing time = 0.00 sec. (2.83 ticks)
Tried aggregator 2 times.
Detecting symmetries...
MIP Presolve eliminated 12 rows and 67 columns.
Aggregator did 9 substitutions.
Reduced MIP has 597 rows, 1825 columns, and 4225 nonzeros.
Reduced MIP has 1815 binaries, 10 generals, 0 SOSs, and 0 indicators.
Presolve time = 0.01 sec. (5.59 ticks)
Probing fixed 1 vars, tightened 0 bounds.
Probing time = 0.00 sec. (1.42 ticks)
Clique table members: 3837.
MIP emphasis: balance optimality and feasibility.
MIP search method: dynamic search.
Parallel mode: deterministic, using up to 8 threads.
Root relaxation solution time = 0.05 sec. (8.10 ticks)

        Nodes                                         Cuts/
   Node  Left     Objective  IInf  Best Integer    Best Bound    ItCnt     Gap

      0     0       10.4095   420                     10.4095      477         
*     0+    0                           18.0000       10.4095            42.17%
      0     0       16.0000   267       18.0000      Cuts: 58      818   11.11%
      0     0       16.0000   286       18.0000      Cuts: 28     1063   11.11%
      0     0       16.0000   139       18.0000   ZeroHalf: 1     1068   11.11%
*     0+    0                           17.0000       16.0000             5.88%
      0     0       16.0000   298       17.0000      Cuts: 18     1380    5.88%

Repeating presolve.
Tried aggregator 3 times.
MIP Presolve eliminated 143 rows and 915 columns.
MIP Presolve modified 6 coefficients.
Aggregator did 84 substitutions.
Reduced MIP has 370 rows, 826 columns, and 2013 nonzeros.
Reduced MIP has 826 binaries, 0 generals, 0 SOSs, and 0 indicators.
Presolve time = 0.01 sec. (4.66 ticks)
Represolve time = 0.01 sec. (7.56 ticks)

Root node processing (before b&c):
  Real time             =    0.49 sec. (264.43 ticks)
Parallel b&c, 8 threads:
  Real time             =    0.00 sec. (0.00 ticks)
  Sync time (average)   =    0.00 sec.
  Wait time (average)   =    0.00 sec.
                          ------------
Total (root+branch&cut) =    0.49 sec. (264.43 ticks)
